NAME : pr76
TYPE : OP
DIMENSION : 76
COST_LIMIT : 54080
ROUTE_NODES : 44
ROUTE_SCORE : 2708
ROUTE_COST : 53940
NODE_SEQUENCE_SECTION
1
23
22
21
25
26
30
32
33
28
43
42
54
53
52
49
50
66
65
56
55
57
62
61
59
60
41
40
39
38
35
36
37
18
17
16
15
13
12
11
10
6
4
3
-1
DEPOT_SECTION
1
-1
EOF
